Instance name : SB_bar-n100-6
Authors : 
Date : 
Reference 
Solution
Route 1 : 31 32 81 20 82 70 41 37 91 1 48 87 23 73 51 7 57 98 9 8 35 85 58 59 44 33 83 94 
Route 2 : 4 29 54 40 12 90 79 62 21 42 19 71 6 92 56 36 13 69 26 39 63 76 89 86 
Route 3 : 43 34 16 93 84 18 66 15 30 68 65 5 17 2 67 11 45 95 80 55 10 52 61 60 24 50 46 100 96 74 
Route 4 : 38 25 88 47 22 97 72 28 14 75 27 77 78 3 49 53 64 99 
